
Gurobi 11.0.1 (win64) logging started Thu May 16 18:45:03 2024

Set parameter LogFile to value "output/solver_log13.txt"
Gurobi Optimizer version 11.0.1 build v11.0.1rc0 (win64 - Windows 11.0 (22631.2))

CPU model: 11th Gen Intel(R) Core(TM) i7-1165G7 @ 2.80GHz, instruction set [SSE2|AVX|AVX2|AVX512]
Thread count: 4 physical cores, 8 logical processors, using up to 8 threads

Optimize a model with 4383 rows, 1073 columns and 81037 nonzeros
Model fingerprint: 0xb757121f
Variable types: 568 continuous, 505 integer (505 binary)
Coefficient statistics:
  Matrix range     [4e-01, 1e+05]
  Objective range  [1e+00, 1e+02]
  Bounds range     [1e+00, 1e+00]
  RHS range        [1e-02, 1e+05]

User MIP start produced solution with objective 40213 (0.01s)
User MIP start produced solution with objective 40213 (0.01s)
Loaded user MIP start with objective 40213

Presolve removed 408 rows and 267 columns
Presolve time: 0.09s
Presolved: 3975 rows, 806 columns, 75226 nonzeros
Variable types: 524 continuous, 282 integer (275 binary)

Root relaxation: objective 4.967934e+04, 1128 iterations, 0.05 seconds (0.09 work units)

    Nodes    |    Current Node    |     Objective Bounds      |     Work
 Expl Unexpl |  Obj  Depth IntInf | Incumbent    BestBd   Gap | It/Node Time

     0     0 49679.3375    0   30 40213.0483 49679.3375  23.5%     -    0s
     0     0 47645.5110    0   41 40213.0483 47645.5110  18.5%     -    0s
     0     0 46098.2445    0   48 40213.0483 46098.2445  14.6%     -    0s
     0     0 46016.2179    0   48 40213.0483 46016.2179  14.4%     -    0s
     0     0 45804.5494    0   58 40213.0483 45804.5494  13.9%     -    0s
     0     0 45759.6189    0   62 40213.0483 45759.6189  13.8%     -    1s
     0     0 45759.6189    0   60 40213.0483 45759.6189  13.8%     -    1s
     0     0 45515.5266    0   67 40213.0483 45515.5266  13.2%     -    1s
     0     0 45282.2164    0   69 40213.0483 45282.2164  12.6%     -    1s
     0     0 45282.2164    0   67 40213.0483 45282.2164  12.6%     -    1s
     0     0 45282.2164    0   68 40213.0483 45282.2164  12.6%     -    1s
     0     0 45282.2164    0   67 40213.0483 45282.2164  12.6%     -    1s
     0     0 45282.2164    0   71 40213.0483 45282.2164  12.6%     -    1s
     0     0 45282.2164    0   75 40213.0483 45282.2164  12.6%     -    2s
     0     0 45282.2164    0   78 40213.0483 45282.2164  12.6%     -    2s
     0     0 45282.2164    0   77 40213.0483 45282.2164  12.6%     -    2s
     0     0 45210.9962    0   64 40213.0483 45210.9962  12.4%     -    2s
     0     0 45210.9962    0   71 40213.0483 45210.9962  12.4%     -    2s
     0     0 45210.9962    0   75 40213.0483 45210.9962  12.4%     -    2s
     0     0 45210.9962    0   74 40213.0483 45210.9962  12.4%     -    2s
     0     0 45160.5588    0   79 40213.0483 45160.5588  12.3%     -    2s
     0     0 45160.5588    0   78 40213.0483 45160.5588  12.3%     -    2s
     0     0 45160.5588    0   74 40213.0483 45160.5588  12.3%     -    2s
     0     0 45116.5016    0   79 40213.0483 45116.5016  12.2%     -    2s
     0     0 45116.5016    0   86 40213.0483 45116.5016  12.2%     -    2s
     0     0 45116.5016    0   91 40213.0483 45116.5016  12.2%     -    3s
     0     0 45071.6752    0   93 40213.0483 45071.6752  12.1%     -    3s
     0     0 45071.6752    0   96 40213.0483 45071.6752  12.1%     -    3s
     0     0 45071.6752    0   89 40213.0483 45071.6752  12.1%     -    3s
     0     0 45071.6752    0   91 40213.0483 45071.6752  12.1%     -    3s
     0     0 45071.6752    0   94 40213.0483 45071.6752  12.1%     -    3s
     0     0 45071.6752    0   96 40213.0483 45071.6752  12.1%     -    3s
     0     0 45071.6752    0  102 40213.0483 45071.6752  12.1%     -    3s
     0     0 45071.6752    0  108 40213.0483 45071.6752  12.1%     -    3s
     0     0 45071.6752    0  106 40213.0483 45071.6752  12.1%     -    3s
     0     0 45071.6752    0  115 40213.0483 45071.6752  12.1%     -    4s
     0     0 45071.6752    0  115 40213.0483 45071.6752  12.1%     -    4s
     0     2 45071.6752    0  115 40213.0483 45071.6752  12.1%     -    4s
    37    42 42500.6666    9   43 40213.0483 44540.0995  10.8%   442    5s
H  188   135                    40233.391750 44198.9262  9.86%   444    7s
   378   223 40642.5672   11   24 40233.3918 43622.6420  8.42%   430   10s
   782   323     cutoff   15      40233.3918 42867.1284  6.55%   435   16s
  1103   401 41615.2484   10   47 40233.3918 42532.2730  5.71%   438   21s
  1424   449     cutoff   13      40233.3918 42280.7745  5.09%   469   25s
  1642   456     cutoff   10      40233.3918 42195.1092  4.88%   473   30s
  2208   452     cutoff   11      40233.3918 41919.5324  4.19%   481   35s
  2684   452     cutoff   11      40233.3918 41698.0098  3.64%   482   40s
  3174   460 40442.1539   12   23 40233.3918 41543.9440  3.26%   493   45s
* 3379   443              89    40238.765787 41512.7336  3.17%   484   46s
  3876   358     cutoff   13      40238.7658 41286.9568  2.60%   484   51s
H 4276   258                    40238.772024 41131.7559  2.22%   484   54s
H 4371   258                    40239.212785 41051.4505  2.02%   483   54s
H 4408   214                    40239.284727 41051.4505  2.02%   484   56s
H 4627   175                    40245.603703 40951.8305  1.75%   483   59s
  4668   128     cutoff   11      40245.6037 40931.7847  1.70%   483   60s

Cutting planes:
  Gomory: 10
  Implied bound: 16
  MIR: 148
  RLT: 11
  Relax-and-lift: 12
  BQP: 2

Explored 4775 nodes (2327605 simplex iterations) in 60.02 seconds (133.96 work units)
Thread count was 8 (of 8 available processors)

Solution count 7: 40245.6 40239.3 40239.2 ... 40213

Time limit reached
Best objective 4.024560370294e+04, best bound 4.078457447169e+04, gap 1.3392%
